ALGO = Normal
EDIFF = 1e-05
EDIFFG = -0.005
ENCUT = 500
IBRION = 2
ICHARG = 1
ISIF = 3
ISMEAR = 0
ISPIN = 2
LCHARG = False
LDAU = True
LDAUJ = 0.8 0
LDAUL = 2 0
LDAUPRINT = 1
LDAUTYPE = 1
LDAUU = 1.8 0
LMAXMIX = 4
LORBIT = 10
LREAL = False
#LWAVE = False
NCORE = 16
NELM = 200
NSW = 0
PREC = Accurate
SIGMA = 0.05
IOPTCELL = 1 1 0 1 1 0 0 0 0

#ICHARG = 11
I_CONSTRAINED_M = 1
M_CONSTR = 1 0 0  1 0 0  0 0 1  0 0 1  0 0 1  0 0 1  0 0 1  0 0 1  0 0 1  0 0 1  0 0 1  0 0 1  0 0 1  0 0 1  0 0 1  0 0 1  0 0 1  0 0 1  0 0 1  0 0 1  120*0
MAGMOM = 2 0 0  2 0 0  0 0 2  0 0 2  0 0 2  0 0 2  0 0 2  0 0 2  0 0 2  0 0 2  0 0 2  0 0 2  0 0 2  0 0 2  0 0 2  0 0 2  0 0 2  0 0 2  0 0 2  0 0 2  120*0
RWIGS = 1.24 1.39
LSORBIT = T
LAMBDA = 50
AMIX = 0.1
BMIX = 3
AMIX_MAG = 0.008
BMIX_MAG = 0.0001
