Cr8 I24
1.0
  14.0158882027589549    0.0000000000000000    0.0000000000000000
  -7.0079441013794792   12.1381152401918762    0.0000000000000000
  -0.0000000000000000    0.0000000000000000   18.0635365764484419
Cr I
8 24
direct
   0.3333333333333333    0.1666666666666666    0.5000000247180771 Cr
   0.3333333333333334    0.6666666666666666    0.5000000247180771 Cr
   0.8333333333333334    0.1666666666666666    0.5000000247180771 Cr
   0.8333333333333334    0.6666666666666666    0.5000000247180771 Cr
   0.1666666666666671    0.3333333333333333    0.5000000501683313 Cr
   0.1666666666666671    0.8333333333333333    0.5000000501683313 Cr
   0.6666666666666671    0.3333333333333333    0.5000000501683313 Cr
   0.6666666666666672    0.8333333333333333    0.5000000501683313 Cr
   0.3200402569924952    0.9999988938974512    0.4132568422667843 I
   0.3200402569924952    0.4999988938974512    0.4132568422667843 I
   0.8200402569924951    0.9999988938974512    0.4132568422667843 I
   0.8200402569924952    0.4999988938974512    0.4132568422667843 I
   0.1799586369049567    0.1799597430075050    0.4132568422667843 I
   0.1799586369049567    0.6799597430075049    0.4132568422667843 I
   0.6799586369049567    0.1799597430075050    0.4132568422667843 I
   0.6799586369049567    0.6799597430075049    0.4132568422667843 I
   0.0000011061025504    0.3200413630950441    0.4132568422667843 I
   0.0000011061025504    0.8200413630950439    0.4132568422667843 I
   0.5000011061025504    0.3200413630950441    0.4132568422667843 I
   0.5000011061025504    0.8200413630950439    0.4132568422667843 I
   0.1799587197878235    0.9999990429636970    0.5867431487742784 I
   0.1799587197878236    0.4999990429636970    0.5867431487742784 I
   0.6799587197878235    0.9999990429636970    0.5867431487742784 I
   0.6799587197878236    0.4999990429636970    0.5867431487742784 I
   0.3200403231758715    0.3200412802121743    0.5867431487742784 I
   0.3200403231758715    0.8200412802121743    0.5867431487742784 I
   0.8200403231758715    0.3200412802121743    0.5867431487742784 I
   0.8200403231758715    0.8200412802121743    0.5867431487742784 I
   0.0000009570363041    0.1799596768241291    0.5867431487742784 I
   0.0000009570363041    0.6799596768241291    0.5867431487742784 I
   0.5000009570363042    0.1799596768241291    0.5867431487742784 I
   0.5000009570363042    0.6799596768241291    0.5867431487742784 I
