Cr2 I6                                  
   1.00000000000000     
     7.1131374882967124    0.0000000000000000    0.0000000000000000
    -3.5565687441483571    6.1601577654763897    0.0000000000000000
     0.0000000000000000    0.0000000000000000   18.0635365764484419
   Cr   I 
     2     6
Direct
  0.6666666666666643  0.3333333333333357  0.5000000247180765
  0.3333333333333357  0.6666666666666643  0.5000000501683317
  0.6415738047516142  0.9999977877949036  0.4116659127023310
  0.3584239830432894  0.3584261952483858  0.4116659127023310
  0.0000022122051035  0.6415760169567106  0.4116659127023310
  0.3584241488090230  0.9999980859273947  0.5883340783387269
  0.6415739371183646  0.6415758511909699  0.5883340783387269
  0.0000019140726053  0.3584260628816354  0.5883340783387269
